
Gurobi 11.0.3 (win64) logging started Wed Sep  4 16:02:37 2024

Set parameter LogFile to value "C:\Users\ealvarezq\Desktop\K.Investments_per_hour\IEEE118_mod2_ByStages_nc60/openStarNet_IEEE118_mod2_ByStages_nc60.log"
Set parameter Method to value 2
Set parameter MIPFocus to value 1
Set parameter Presolve to value 2
Set parameter RINS to value 100
Set parameter MIPGap to value 0.01
Set parameter Threads to value 24
Set parameter TimeLimit to value 259200
Set parameter IterationLimit to value 760000000
Gurobi Optimizer version 11.0.3 build v11.0.3rc0 (win64 - Windows Server 2019.0 (17763.2))

CPU model: AMD Ryzen Threadripper PRO 3955WX 16-Cores, instruction set [SSE2|AVX|AVX2]
Thread count: 16 physical cores, 32 logical processors, using up to 24 threads

Optimize a model with 85263 rows, 62841 columns and 219198 nonzeros
Model fingerprint: 0x45a1d9a1
Variable types: 62807 continuous, 34 integer (34 binary)
Coefficient statistics:
  Matrix range     [2e-03, 9e+03]
  Objective range  [1e+00, 1e+00]
  Bounds range     [1e-04, 3e+00]
  RHS range        [2e-04, 3e+00]
Presolve removed 57686 rows and 28937 columns
Presolve time: 0.38s
Presolved: 27577 rows, 33904 columns, 100816 nonzeros
Variable types: 33870 continuous, 34 integer (34 binary)
Root relaxation presolved: 27577 rows, 33904 columns, 100816 nonzeros

Root barrier log...

Ordering time: 0.03s

Barrier statistics:
 Dense cols : 34
 AA' NZ     : 1.249e+05
 Factor NZ  : 4.840e+05 (roughly 30 MB of memory)
 Factor Ops : 1.012e+07 (less than 1 second per iteration)
 Threads    : 23

                  Objective                Residual
Iter       Primal          Dual         Primal    Dual     Compl     Time
   0   8.99574867e+06 -8.24209430e+08  1.56e+01 1.88e+03  4.51e+04     1s
   1   2.14400418e+06 -3.16813248e+08  3.40e+00 1.45e-08  9.25e+03     1s
   2   6.35794398e+05 -2.55341838e+08  7.38e-01 1.16e-08  4.20e+03     1s
   3   3.93959192e+05 -4.50704855e+07  2.80e-01 2.77e-09  7.38e+02     1s
   4   2.39934872e+05 -1.29236060e+07  2.03e-02 6.06e-10  1.68e+02     1s
   5   1.70282417e+05 -3.30760926e+06  4.04e-03 1.60e-10  4.31e+01     1s
   6   1.01334807e+05 -9.34939046e+05  1.30e-03 7.46e-11  1.28e+01     1s
   7   4.22296202e+04 -2.44433481e+05  3.63e-04 1.50e-11  3.53e+00     1s
   8   1.50341590e+04 -6.85224561e+04  8.33e-05 6.38e-12  1.03e+00     1s
   9   9.02875470e+03 -3.79595498e+04  3.73e-05 4.89e-12  5.78e-01     1s
  10   5.56981269e+03 -1.17405837e+04  1.64e-05 7.38e-12  2.13e-01     1s
  11   4.25412292e+03 -6.16691739e+03  1.05e-05 5.37e-12  1.28e-01     1s
  12   3.14201521e+03 -1.58673519e+03  6.16e-06 7.81e-12  5.81e-02     1s
  13   2.44734634e+03 -5.39105425e+02  3.85e-06 5.39e-12  3.67e-02     1s
  14   1.87519055e+03  2.30287411e+02  2.03e-06 6.29e-12  2.02e-02     1s
  15   1.54726924e+03  8.19929972e+02  1.06e-06 5.89e-12  8.94e-03     1s
  16   1.39835446e+03  1.01602610e+03  6.54e-07 7.29e-12  4.70e-03     1s
  17   1.29585752e+03  1.07265112e+03  3.67e-07 7.59e-12  2.74e-03     1s
  18   1.24266590e+03  1.10255061e+03  2.21e-07 7.92e-12  1.72e-03     1s
  19   1.20879912e+03  1.13242673e+03  1.28e-07 4.04e-12  9.39e-04     1s
  20   1.19433940e+03  1.14126761e+03  8.92e-08 7.42e-12  6.52e-04     1s
  21   1.17820550e+03  1.15123296e+03  4.59e-08 4.51e-12  3.32e-04     2s
  22   1.17029595e+03  1.15539420e+03  2.53e-08 1.16e-11  1.83e-04     2s
  23   1.16399740e+03  1.15700285e+03  8.81e-09 4.92e-12  8.60e-05     2s
  24   1.16269083e+03  1.15785906e+03  5.52e-09 6.65e-12  5.94e-05     2s
  25   1.16210622e+03  1.15851931e+03  4.06e-09 5.68e-12  4.41e-05     2s
  26   1.16118499e+03  1.15938485e+03  1.75e-09 6.25e-12  2.21e-05     2s
  27   1.16095480e+03  1.15993289e+03  1.21e-09 1.01e-11  1.26e-05     2s
  28   1.16060254e+03  1.16022433e+03  7.67e-10 5.57e-12  4.65e-06     2s
  29   1.16047169e+03  1.16026603e+03  1.66e-09 1.09e-11  2.53e-06     2s
  30   1.16045545e+03  1.16034186e+03  6.91e-09 6.19e-12  1.40e-06     2s
  31   1.16043772e+03  1.16038017e+03  5.07e-09 8.57e-12  7.07e-07     2s
  32   1.16043342e+03  1.16038593e+03  3.29e-09 6.95e-12  5.84e-07     2s
  33   1.16043026e+03  1.16039765e+03  3.42e-09 3.20e-12  4.01e-07     2s
  34   1.16042867e+03  1.16040753e+03  3.21e-09 6.54e-12  2.60e-07     2s
  35   1.16042651e+03  1.16041066e+03  2.94e-09 1.05e-11  1.95e-07     2s
  36   1.16042617e+03  1.16042543e+03  4.31e-09 6.15e-12  9.03e-09     2s
  37   1.16042592e+03  1.16042587e+03  2.27e-10 1.13e-11  5.49e-10     2s
  38   1.16042591e+03  1.16042591e+03  3.28e-10 6.28e-12  1.05e-11     2s

Barrier solved model in 38 iterations and 1.83 seconds (1.10 work units)
Optimal objective 1.16042591e+03


Root relaxation: objective 1.160426e+03, 2404 iterations, 1.63 seconds (0.90 work units)

    Nodes    |    Current Node    |     Objective Bounds      |     Work
 Expl Unexpl |  Obj  Depth IntInf | Incumbent    BestBd   Gap | It/Node Time

     0     0 1160.42591    0   22          - 1160.42591      -     -    2s
H    0     0                    7375.5283117 1160.42591  84.3%     -    4s
H    0     0                    2971.4714475 1160.42591  60.9%     -    4s
     0     0 1181.03322    0   20 2971.47145 1181.03322  60.3%     -    6s
H    0     0                    1356.1024387 1181.03322  12.9%     -    8s
     0     0 1184.73487    0   21 1356.10244 1184.73487  12.6%     -    8s
     0     0 1186.13639    0   20 1356.10244 1186.13639  12.5%     -    9s
     0     0 1186.13639    0   20 1356.10244 1186.13639  12.5%     -    9s
     0     0 1186.13639    0   20 1356.10244 1186.13639  12.5%     -   11s
     0     0 1186.13639    0   20 1356.10244 1186.13639  12.5%     -   11s
     0     0 1186.13639    0   19 1356.10244 1186.13639  12.5%     -   13s
     0     0 1186.13639    0   19 1356.10244 1186.13639  12.5%     -   14s
     0     0 1186.13639    0   19 1356.10244 1186.13639  12.5%     -   14s
     0     0 1205.79161    0   19 1356.10244 1205.79161  11.1%     -   16s
H    0     0                    1314.8700542 1205.79161  8.30%     -  137s
     0     2 1205.79161    0   19 1314.87005 1205.79161  8.30%     -  138s
     1     4 1247.89463    1   19 1314.87005 1205.79161  8.30%  2527  140s
    15    20 1230.43310    4   17 1314.87005 1223.23639  6.97%  1092  145s
    27    28 1241.69668    5   16 1314.87005 1230.52239  6.41%   826  151s
    95    68 1314.10006    8   11 1314.87005 1243.05133  5.46%   882  159s
   119    80 1309.82923    7   15 1314.87005 1243.05133  5.46%   845  161s
   207    94 1304.51259   12    9 1314.87005 1243.05133  5.46%   638  167s
   240   101     cutoff   13      1314.87005 1243.05133  5.46%   617  172s
   325    89 1299.10601   14    6 1314.87005 1243.05133  5.46%   560  175s
   481    75 1276.77805    9   13 1314.87005 1256.29305  4.45%   467  180s
   575    57 1276.31868    9   13 1314.87005 1256.29305  4.45%   451  188s
   626    41     cutoff    8      1314.87005 1258.51317  4.29%   457  193s
   734    22 1309.67908   13    9 1314.87005 1258.51317  4.29%   421  195s
   834    11 1289.63551   12   11 1314.87005 1286.99691  2.12%   401  200s

Cutting planes:
  Gomory: 1
  Implied bound: 147
  MIR: 224
  RLT: 2

Explored 859 nodes (346474 simplex iterations) in 201.02 seconds (185.06 work units)
Thread count was 24 (of 32 available processors)

Solution count 4: 1314.87 1356.1 2971.47 7375.53 

Optimal solution found (tolerance 1.00e-02)
Best objective 1.314870054203e+03, best bound 1.312988090949e+03, gap 0.1431%

Gurobi 11.0.3 (win64) logging started Wed Sep  4 16:06:27 2024

Set parameter LogFile to value "C:\Users\ealvarezq\Desktop\K.Investments_per_hour\IEEE118_mod2_ByStages_nc60/openStarNet_IEEE118_mod2_ByStages_nc60.log"
Set parameter Method to value 2
Set parameter MIPFocus to value 1
Set parameter Presolve to value 2
Set parameter RINS to value 100
Set parameter MIPGap to value 0.01
Set parameter Threads to value 24
Set parameter TimeLimit to value 259200
Set parameter IterationLimit to value 760000000
Gurobi Optimizer version 11.0.3 build v11.0.3rc0 (win64 - Windows Server 2019.0 (17763.2))

CPU model: AMD Ryzen Threadripper PRO 3955WX 16-Cores, instruction set [SSE2|AVX|AVX2]
Thread count: 16 physical cores, 32 logical processors, using up to 24 threads

Optimize a model with 85263 rows, 62807 columns and 211004 nonzeros
Model fingerprint: 0x60e2e786
Coefficient statistics:
  Matrix range     [2e-03, 9e+03]
  Objective range  [1e+00, 1e+00]
  Bounds range     [1e-04, 3e+00]
  RHS range        [2e-04, 3e+02]
Presolve removed 63492 rows and 27415 columns
Presolve time: 0.18s
Presolved: 21771 rows, 35527 columns, 84991 nonzeros

Ordering time: 0.01s

Barrier statistics:
 AA' NZ     : 7.162e+04
 Factor NZ  : 2.848e+05 (roughly 25 MB of memory)
 Factor Ops : 4.085e+06 (less than 1 second per iteration)
 Threads    : 24

                  Objective                Residual
Iter       Primal          Dual         Primal    Dual     Compl     Time
   0   1.59389359e+07 -4.46660550e+08  9.52e+01 1.41e+02  2.33e+04     0s
   1   1.74652592e+06 -1.25817799e+08  9.08e+00 2.05e-12  2.89e+03     1s
   2   4.30514558e+05 -2.22220807e+07  1.38e+00 2.27e-12  4.10e+02     1s
   3   1.79579463e+05 -2.70855418e+06  3.66e-02 1.82e-12  3.86e+01     1s
   4   6.94586580e+04 -4.74895681e+05  4.25e-03 1.59e-12  7.05e+00     1s
   5   3.47587713e+04 -1.29640580e+05  1.55e-03 6.25e-13  2.12e+00     1s
   6   1.31925608e+04 -4.09555162e+04  3.71e-04 3.83e-13  6.98e-01     1s
   7   7.23169806e+03 -1.65429075e+04  1.41e-04 3.99e-13  3.06e-01     1s
   8   5.36369490e+03 -6.08378306e+03  8.45e-05 4.06e-13  1.47e-01     1s
   9   3.64095034e+03 -2.64077125e+03  4.24e-05 4.59e-13  8.09e-02     1s
  10   2.51662006e+03 -6.01823493e+02  1.95e-05 3.74e-13  4.02e-02     1s
  11   2.01205939e+03  3.20172766e+02  1.06e-05 3.33e-13  2.18e-02     1s
  12   1.78265295e+03  7.35635052e+02  6.89e-06 6.41e-13  1.35e-02     1s
  13   1.59984437e+03  9.53906035e+02  4.08e-06 4.25e-13  8.32e-03     1s
  14   1.51464876e+03  1.01758961e+03  2.80e-06 3.23e-13  6.40e-03     1s
  15   1.42958689e+03  1.14248567e+03  1.55e-06 5.29e-13  3.70e-03     1s
  16   1.36651090e+03  1.22772811e+03  6.69e-07 3.41e-13  1.79e-03     1s
  17   1.34258013e+03  1.26646751e+03  3.50e-07 3.55e-13  9.81e-04     1s
  18   1.32835065e+03  1.29454962e+03  1.63e-07 3.88e-13  4.35e-04     1s
  19   1.32244756e+03  1.30481750e+03  8.90e-08 5.03e-13  2.27e-04     1s
  20   1.31760647e+03  1.31356138e+03  3.08e-08 4.66e-13  5.21e-05     1s
  21   1.31543793e+03  1.31444053e+03  5.97e-09 5.76e-13  1.28e-05     1s
  22   1.31497452e+03  1.31474690e+03  1.44e-09 8.13e-13  2.93e-06     1s
  23   1.31490528e+03  1.31485497e+03  1.60e-09 7.16e-13  6.48e-07     1s
  24   1.31487037e+03  1.31486947e+03  1.53e-09 5.77e-13  1.16e-08     1s
  25   1.31487005e+03  1.31487005e+03  3.92e-10 5.36e-13  3.11e-14     1s

Barrier solved model in 25 iterations and 0.95 seconds (0.37 work units)
Optimal objective 1.31487005e+03

Crossover log...

    6255 DPushes remaining with DInf 0.0000000e+00                 1s
       0 DPushes remaining with DInf 0.0000000e+00                 1s

     367 PPushes remaining with PInf 0.0000000e+00                 1s
       0 PPushes remaining with PInf 0.0000000e+00                 1s

  Push phase complete: Pinf 0.0000000e+00, Dinf 3.2382807e-12      1s

Iteration    Objective       Primal Inf.    Dual Inf.      Time
    1744    1.3148701e+03   0.000000e+00   0.000000e+00      1s

Solved in 1744 iterations and 1.11 seconds (0.44 work units)
Optimal objective  1.314870054e+03
